33D32945 STP File, STP Format Version 1.0

SECTION Comment
Name "i640-332-PCST"
Creator "Indaco Biazzo" 
Remark "derived from Incidence graph by Cees Duin"
END

SECTION Graph
Nodes 640
Edges 1280
E 1 55 297.000000
E 1 175 195.000000
E 1 207 202.000000
E 1 243 196.000000
E 1 246 201.000000
E 1 474 203.000000
E 1 475 198.000000
E 1 484 206.000000
E 1 492 206.000000
E 1 624 200.000000
E 1 635 197.000000
E 2 49 294.000000
E 2 128 294.000000
E 2 205 190.000000
E 2 299 196.000000
E 2 339 200.000000
E 2 462 207.000000
E 3 59 307.000000
E 3 82 301.000000
E 3 198 201.000000
E 3 338 194.000000
E 3 440 198.000000
E 4 186 195.000000
E 4 293 195.000000
E 4 344 195.000000
E 4 456 195.000000
E 4 490 198.000000
E 5 73 306.000000
E 5 154 297.000000
E 5 310 197.000000
E 5 637 197.000000
E 6 20 295.000000
E 6 76 300.000000
E 6 176 207.000000
E 6 272 200.000000
E 6 539 189.000000
E 7 108 304.000000
E 7 289 213.000000
E 7 350 206.000000
E 8 123 295.000000
E 8 303 205.000000
E 8 336 197.000000
E 8 511 195.000000
E 9 59 311.000000
E 9 148 290.000000
E 9 232 196.000000
E 9 393 198.000000
E 9 529 190.000000
E 10 349 194.000000
E 10 360 197.000000
E 10 407 205.000000
E 10 559 204.000000
E 11 42 297.000000
E 11 393 207.000000
E 11 422 202.000000
E 11 480 195.000000
E 12 504 199.000000
E 12 583 197.000000
E 12 587 198.000000
E 12 595 198.000000
E 13 78 294.000000
E 13 166 191.000000
E 13 250 200.000000
E 13 338 201.000000
E 13 493 197.000000
E 14 77 301.000000
E 14 394 197.000000
E 15 298 201.000000
E 15 304 201.000000
E 15 321 199.000000
E 15 507 201.000000
E 15 602 197.000000
E 16 42 306.000000
E 16 183 201.000000
E 16 223 190.000000
E 16 490 200.000000
E 16 545 195.000000
E 16 592 210.000000
E 17 162 204.000000
E 17 213 190.000000
E 17 464 206.000000
E 17 477 207.000000
E 17 604 201.000000
E 18 76 294.000000
E 18 84 302.000000
E 18 164 205.000000
E 18 578 195.000000
E 18 588 193.000000
E 19 100 302.000000
E 19 249 194.000000
E 19 338 194.000000
E 19 506 191.000000
E 19 521 200.000000
E 20 213 202.000000
E 20 303 204.000000
E 20 412 205.000000
E 20 607 189.000000
E 21 45 300.000000
E 21 79 298.000000
E 21 89 294.000000
E 21 132 302.000000
E 21 184 204.000000
E 22 52 300.000000
E 22 73 307.000000
E 22 272 210.000000
E 22 298 204.000000
E 22 447 203.000000
E 22 561 198.000000
E 23 330 202.000000
E 23 467 201.000000
E 24 48 305.000000
E 24 123 295.000000
E 24 392 198.000000
E 24 555 196.000000
E 25 416 201.000000
E 25 518 196.000000
E 26 276 200.000000
E 26 315 192.000000
E 26 418 194.000000
E 27 85 302.000000
E 27 248 198.000000
E 27 484 200.000000
E 27 490 198.000000
E 27 544 203.000000
E 27 619 199.000000
E 28 273 192.000000
E 28 286 197.000000
E 28 322 201.000000
E 28 373 206.000000
E 28 572 198.000000
E 28 587 202.000000
E 28 588 207.000000
E 28 610 203.000000
E 29 76 298.000000
E 29 113 300.000000
E 29 224 199.000000
E 30 96 299.000000
E 30 174 201.000000
E 30 471 198.000000
E 30 473 195.000000
E 31 174 190.000000
E 31 369 201.000000
E 31 380 187.000000
E 31 508 201.000000
E 32 204 189.000000
E 32 397 204.000000
E 32 426 198.000000
E 32 504 203.000000
E 32 612 200.000000
E 33 63 297.000000
E 33 392 197.000000
E 33 452 201.000000
E 33 591 191.000000
E 34 211 195.000000
E 34 374 202.000000
E 34 455 206.000000
E 35 219 198.000000
E 35 258 205.000000
E 35 369 197.000000
E 35 493 202.000000
E 35 508 205.000000
E 36 171 200.000000
E 37 63 300.000000
E 37 373 197.000000
E 37 428 196.000000
E 38 60 301.000000
E 38 166 204.000000
E 38 193 202.000000
E 39 98 304.000000
E 39 237 197.000000
E 40 92 297.000000
E 40 179 202.000000
E 40 435 184.000000
E 40 611 205.000000
E 41 389 204.000000
E 42 241 200.000000
E 42 306 203.000000
E 42 486 199.000000
E 43 156 304.000000
E 43 219 199.000000
E 43 318 200.000000
E 43 512 201.000000
E 43 537 195.000000
E 44 74 294.000000
E 44 144 301.000000
E 44 210 193.000000
E 44 300 199.000000
E 44 324 197.000000
E 44 327 203.000000
E 44 525 205.000000
E 44 556 198.000000
E 45 49 300.000000
E 45 177 201.000000
E 45 437 197.000000
E 45 462 200.000000
E 46 64 299.000000
E 46 571 189.000000
E 46 634 205.000000
E 47 268 198.000000
E 47 299 204.000000
E 47 600 202.000000
E 48 151 303.000000
E 49 247 205.000000
E 49 277 207.000000
E 49 323 195.000000
E 50 240 201.000000
E 50 265 199.000000
E 51 141 306.000000
E 51 325 196.000000
E 52 426 198.000000
E 53 123 293.000000
E 53 191 198.000000
E 53 625 200.000000
E 54 610 196.000000
E 55 130 300.000000
E 56 103 307.000000
E 56 349 197.000000
E 56 594 200.000000
E 57 195 197.000000
E 57 368 197.000000
E 57 381 201.000000
E 57 600 199.000000
E 58 131 298.000000
E 58 136 305.000000
E 58 174 194.000000
E 58 200 197.000000
E 58 505 203.000000
E 58 630 209.000000
E 59 75 298.000000
E 59 304 205.000000
E 59 313 196.000000
E 59 340 197.000000
E 59 389 208.000000
E 60 97 289.000000
E 60 223 204.000000
E 61 275 206.000000
E 61 344 197.000000
E 61 449 190.000000
E 61 486 196.000000
E 61 537 206.000000
E 62 162 195.000000
E 62 312 204.000000
E 62 396 199.000000
E 63 82 305.000000
E 63 189 197.000000
E 63 222 201.000000
E 63 229 202.000000
E 64 69 301.000000
E 64 202 200.000000
E 65 165 201.000000
E 65 231 202.000000
E 65 560 186.000000
E 65 565 196.000000
E 65 571 211.000000
E 65 623 203.000000
E 66 547 192.000000
E 66 620 208.000000
E 67 223 200.000000
E 67 290 202.000000
E 67 336 201.000000
E 68 366 199.000000
E 68 389 202.000000
E 68 401 199.000000
E 68 464 207.000000
E 69 469 198.000000
E 70 81 294.000000
E 70 221 199.000000
E 70 261 203.000000
E 70 600 194.000000
E 71 82 299.000000
E 71 136 299.000000
E 71 207 200.000000
E 71 389 197.000000
E 71 569 206.000000
E 71 587 187.000000
E 72 359 203.000000
E 72 378 198.000000
E 72 473 192.000000
E 73 318 198.000000
E 73 391 193.000000
E 73 470 198.000000
E 73 518 197.000000
E 73 522 196.000000
E 74 184 205.000000
E 74 271 205.000000
E 74 571 202.000000
E 75 284 199.000000
E 75 309 194.000000
E 75 433 202.000000
E 76 154 299.000000
E 76 203 200.000000
E 77 266 206.000000
E 77 324 199.000000
E 77 397 202.000000
E 77 440 204.000000
E 77 579 195.000000
E 78 131 306.000000
E 78 275 202.000000
E 78 282 203.000000
E 78 287 193.000000
E 79 169 198.000000
E 80 93 302.000000
E 80 263 209.000000
E 80 543 193.000000
E 81 100 298.000000
E 81 128 293.000000
E 81 265 202.000000
E 81 371 198.000000
E 81 497 198.000000
E 81 613 196.000000
E 81 632 189.000000
E 82 101 309.000000
E 82 303 201.000000
E 82 333 205.000000
E 82 465 200.000000
E 82 545 201.000000
E 82 602 210.000000
E 83 175 197.000000
E 83 250 195.000000
E 83 256 199.000000
E 83 290 205.000000
E 83 343 199.000000
E 83 370 202.000000
E 83 551 201.000000
E 84 423 200.000000
E 84 618 202.000000
E 85 118 295.000000
E 85 522 199.000000
E 86 170 194.000000
E 86 262 199.000000
E 86 350 201.000000
E 86 582 197.000000
E 87 169 200.000000
E 87 258 194.000000
E 87 322 201.000000
E 87 357 197.000000
E 87 528 204.000000
E 88 90 303.000000
E 88 266 202.000000
E 88 459 199.000000
E 89 378 196.000000
E 89 388 189.000000
E 89 508 197.000000
E 90 241 209.000000
E 90 318 194.000000
E 90 544 205.000000
E 90 556 206.000000
E 90 565 194.000000
E 90 576 200.000000
E 91 311 203.000000
E 91 569 198.000000
E 92 326 202.000000
E 92 460 201.000000
E 93 98 309.000000
E 93 270 198.000000
E 93 339 207.000000
E 93 347 203.000000
E 94 107 298.000000
E 94 503 205.000000
E 95 122 295.000000
E 95 189 196.000000
E 95 613 197.000000
E 96 105 297.000000
E 96 502 202.000000
E 96 599 201.000000
E 97 389 193.000000
E 97 458 191.000000
E 97 470 198.000000
E 97 475 209.000000
E 97 560 207.000000
E 98 132 297.000000
E 98 144 296.000000
E 98 164 201.000000
E 98 418 208.000000
E 98 568 196.000000
E 99 148 303.000000
E 99 206 205.000000
E 99 250 193.000000
E 99 304 199.000000
E 99 363 211.000000
E 99 432 201.000000
E 99 489 201.000000
E 99 535 197.000000
E 100 385 194.000000
E 100 520 192.000000
E 100 611 190.000000
E 101 146 304.000000
E 102 473 205.000000
E 102 487 192.000000
E 103 505 206.000000
E 103 635 195.000000
E 104 116 307.000000
E 105 126 296.000000
E 105 188 201.000000
E 105 391 208.000000
E 105 476 204.000000
E 106 243 196.000000
E 106 291 202.000000
E 106 464 204.000000
E 106 633 199.000000
E 107 349 207.000000
E 107 408 196.000000
E 107 415 200.000000
E 107 489 201.000000
E 108 264 192.000000
E 108 293 205.000000
E 109 209 201.000000
E 109 214 197.000000
E 109 335 205.000000
E 109 562 199.000000
E 109 585 201.000000
E 110 381 202.000000
E 110 438 202.000000
E 111 218 194.000000
E 111 475 194.000000
E 111 623 196.000000
E 112 126 300.000000
E 112 219 193.000000
E 112 441 198.000000
E 112 444 198.000000
E 112 563 202.000000
E 112 564 199.000000
E 113 169 206.000000
E 113 574 192.000000
E 114 146 301.000000
E 114 228 189.000000
E 114 407 184.000000
E 114 509 200.000000
E 115 337 201.000000
E 115 475 200.000000
E 115 530 196.000000
E 116 163 195.000000
E 116 473 192.000000
E 117 175 202.000000
E 117 219 197.000000
E 117 411 197.000000
E 117 437 202.000000
E 117 508 207.000000
E 118 238 198.000000
E 118 388 203.000000
E 118 396 194.000000
E 118 462 197.000000
E 118 526 190.000000
E 119 264 200.000000
E 119 529 202.000000
E 120 187 199.000000
E 120 325 207.000000
E 120 330 198.000000
E 120 541 191.000000
E 120 582 195.000000
E 121 200 203.000000
E 121 447 194.000000
E 121 506 200.000000
E 121 508 205.000000
E 121 533 192.000000
E 122 354 201.000000
E 123 134 295.000000
E 123 163 199.000000
E 123 198 198.000000
E 123 269 209.000000
E 123 527 192.000000
E 124 354 204.000000
E 125 328 193.000000
E 125 540 204.000000
E 125 555 193.000000
E 126 233 205.000000
E 126 446 196.000000
E 126 533 196.000000
E 127 145 302.000000
E 127 170 205.000000
E 127 337 198.000000
E 128 167 200.000000
E 128 186 201.000000
E 128 257 204.000000
E 128 277 198.000000
E 128 574 197.000000
E 128 601 192.000000
E 129 357 202.000000
E 130 212 193.000000
E 130 358 192.000000
E 130 468 207.000000
E 130 539 204.000000
E 131 635 203.000000
E 132 331 195.000000
E 132 454 208.000000
E 132 543 206.000000
E 133 419 191.000000
E 133 469 199.000000
E 134 533 202.000000
E 135 154 297.000000
E 135 221 201.000000
E 135 290 195.000000
E 135 380 204.000000
E 135 630 201.000000
E 136 306 205.000000
E 136 389 199.000000
E 136 582 199.000000
E 137 229 190.000000
E 137 330 198.000000
E 137 548 193.000000
E 138 328 195.000000
E 138 415 206.000000
E 138 438 203.000000
E 138 572 198.000000
E 138 615 196.000000
E 139 345 206.000000
E 140 411 202.000000
E 140 446 206.000000
E 140 496 192.000000
E 140 534 201.000000
E 140 633 201.000000
E 140 638 192.000000
E 141 180 197.000000
E 141 272 199.000000
E 141 377 196.000000
E 141 411 195.000000
E 141 436 199.000000
E 141 499 194.000000
E 141 615 196.000000
E 142 191 201.000000
E 142 194 204.000000
E 142 255 191.000000
E 142 366 189.000000
E 142 525 203.000000
E 143 433 199.000000
E 143 563 211.000000
E 143 587 193.000000
E 144 296 207.000000
E 144 430 199.000000
E 144 465 210.000000
E 144 477 197.000000
E 144 631 197.000000
E 145 199 192.000000
E 145 451 202.000000
E 145 542 202.000000
E 146 462 203.000000
E 146 520 192.000000
E 147 457 200.000000
E 147 460 199.000000
E 147 461 192.000000
E 148 592 201.000000
E 149 188 191.000000
E 149 445 197.000000
E 150 287 195.000000
E 150 394 199.000000
E 151 180 203.000000
E 151 348 193.000000
E 151 351 213.000000
E 151 420 199.000000
E 152 264 199.000000
E 152 299 209.000000
E 152 321 195.000000
E 153 323 206.000000
E 153 494 206.000000
E 153 526 207.000000
E 154 176 202.000000
E 154 419 203.000000
E 154 456 197.000000
E 155 364 203.000000
E 155 377 197.000000
E 156 257 192.000000
E 156 334 204.000000
E 156 462 197.000000
E 156 508 209.000000
E 157 205 200.000000
E 158 303 197.000000
E 158 416 203.000000
E 158 488 197.000000
E 159 220 191.000000
E 159 228 203.000000
E 160 264 206.000000
E 160 329 202.000000
E 160 385 204.000000
E 160 390 193.000000
E 160 404 202.000000
E 161 372 101.000000
E 162 199 99.000000
E 162 424 96.000000
E 162 477 90.000000
E 162 559 107.000000
E 163 191 93.000000
E 163 237 102.000000
E 163 264 101.000000
E 163 424 101.000000
E 163 513 95.000000
E 163 606 103.000000
E 164 222 97.000000
E 164 333 102.000000
E 164 357 105.000000
E 164 610 113.000000
E 165 481 89.000000
E 166 271 97.000000
E 166 516 101.000000
E 166 610 100.000000
E 167 212 95.000000
E 168 397 102.000000
E 168 562 99.000000
E 169 341 105.000000
E 170 420 100.000000
E 171 244 107.000000
E 171 552 90.000000
E 171 563 108.000000
E 172 517 109.000000
E 172 522 101.000000
E 173 211 104.000000
E 173 213 101.000000
E 173 576 98.000000
E 174 261 102.000000
E 174 518 101.000000
E 175 222 104.000000
E 175 256 99.000000
E 175 338 94.000000
E 175 397 103.000000
E 176 287 102.000000
E 176 292 92.000000
E 176 443 101.000000
E 176 575 99.000000
E 178 201 103.000000
E 178 213 106.000000
E 178 455 95.000000
E 179 323 100.000000
E 179 399 97.000000
E 179 626 107.000000
E 180 183 105.000000
E 180 200 100.000000
E 180 229 99.000000
E 180 283 99.000000
E 180 599 102.000000
E 181 186 102.000000
E 181 230 87.000000
E 181 296 101.000000
E 181 515 99.000000
E 182 210 103.000000
E 182 413 84.000000
E 182 445 108.000000
E 182 606 109.000000
E 182 615 105.000000
E 183 298 93.000000
E 183 383 99.000000
E 183 481 99.000000
E 183 586 95.000000
E 184 283 102.000000
E 184 461 100.000000
E 185 199 93.000000
E 185 223 98.000000
E 185 620 94.000000
E 186 497 93.000000
E 186 581 100.000000
E 187 252 101.000000
E 187 410 83.000000
E 188 236 100.000000
E 189 235 92.000000
E 190 226 101.000000
E 190 587 101.000000
E 190 591 102.000000
E 191 417 100.000000
E 192 238 103.000000
E 192 262 96.000000
E 192 396 101.000000
E 192 492 105.000000
E 192 621 98.000000
E 193 502 96.000000
E 194 420 96.000000
E 195 288 90.000000
E 195 631 99.000000
E 196 197 99.000000
E 196 257 99.000000
E 196 620 98.000000
E 197 360 104.000000
E 197 530 107.000000
E 197 563 97.000000
E 197 621 97.000000
E 198 279 100.000000
E 200 301 96.000000
E 200 401 97.000000
E 200 571 100.000000
E 201 323 97.000000
E 201 450 100.000000
E 201 507 97.000000
E 201 524 102.000000
E 201 532 100.000000
E 201 599 94.000000
E 202 350 98.000000
E 202 361 102.000000
E 202 430 102.000000
E 202 468 99.000000
E 202 480 106.000000
E 203 271 87.000000
E 203 281 101.000000
E 203 283 105.000000
E 203 637 100.000000
E 204 363 109.000000
E 204 554 96.000000
E 205 256 104.000000
E 206 260 94.000000
E 207 530 97.000000
E 208 245 100.000000
E 208 284 105.000000
E 208 337 98.000000
E 208 487 111.000000
E 208 620 99.000000
E 208 627 92.000000
E 209 404 98.000000
E 209 487 100.000000
E 209 541 94.000000
E 210 319 105.000000
E 211 254 99.000000
E 211 433 105.000000
E 211 487 103.000000
E 212 277 101.000000
E 212 320 98.000000
E 213 225 103.000000
E 213 416 98.000000
E 213 458 90.000000
E 213 477 104.000000
E 213 524 104.000000
E 214 237 107.000000
E 214 594 103.000000
E 215 582 95.000000
E 216 524 90.000000
E 217 448 94.000000
E 217 512 95.000000
E 217 614 100.000000
E 218 247 97.000000
E 219 227 105.000000
E 220 422 101.000000
E 220 478 97.000000
E 220 574 98.000000
E 221 550 112.000000
E 222 234 100.000000
E 222 313 98.000000
E 222 473 106.000000
E 222 531 89.000000
E 222 548 101.000000
E 222 566 95.000000
E 222 574 98.000000
E 223 271 100.000000
E 223 328 100.000000
E 224 518 100.000000
E 224 561 104.000000
E 224 624 95.000000
E 225 421 100.000000
E 225 623 99.000000
E 225 639 94.000000
E 226 525 105.000000
E 227 314 104.000000
E 227 334 89.000000
E 227 558 96.000000
E 229 251 99.000000
E 230 294 104.000000
E 230 349 105.000000
E 230 353 104.000000
E 230 484 102.000000
E 230 627 108.000000
E 231 381 97.000000
E 231 448 96.000000
E 231 559 100.000000
E 232 354 100.000000
E 232 524 100.000000
E 233 639 102.000000
E 234 616 98.000000
E 235 427 103.000000
E 235 638 94.000000
E 236 545 101.000000
E 237 471 99.000000
E 237 596 102.000000
E 238 535 93.000000
E 239 389 99.000000
E 240 243 102.000000
E 240 362 106.000000
E 241 357 104.000000
E 241 369 97.000000
E 241 518 99.000000
E 242 386 98.000000
E 242 390 89.000000
E 242 441 103.000000
E 242 544 97.000000
E 244 338 93.000000
E 244 424 98.000000
E 244 609 93.000000
E 245 300 88.000000
E 246 551 101.000000
E 247 327 102.000000
E 247 545 102.000000
E 248 382 87.000000
E 248 636 100.000000
E 249 281 109.000000
E 250 361 107.000000
E 250 472 94.000000
E 250 489 96.000000
E 251 476 100.000000
E 252 333 96.000000
E 252 336 97.000000
E 252 364 105.000000
E 252 427 103.000000
E 252 519 99.000000
E 253 416 104.000000
E 253 595 100.000000
E 254 531 108.000000
E 255 525 103.000000
E 255 557 96.000000
E 255 588 92.000000
E 256 262 103.000000
E 256 335 98.000000
E 256 471 101.000000
E 256 563 95.000000
E 257 285 106.000000
E 258 347 103.000000
E 258 438 107.000000
E 258 451 105.000000
E 259 506 104.000000
E 259 640 101.000000
E 260 608 99.000000
E 262 499 93.000000
E 263 584 91.000000
E 264 598 87.000000
E 266 286 95.000000
E 266 313 99.000000
E 266 597 101.000000
E 266 610 97.000000
E 266 630 98.000000
E 267 305 107.000000
E 267 375 102.000000
E 267 403 99.000000
E 268 405 98.000000
E 269 321 97.000000
E 269 324 106.000000
E 269 515 94.000000
E 270 283 111.000000
E 270 507 106.000000
E 271 328 96.000000
E 271 486 99.000000
E 271 508 96.000000
E 272 329 96.000000
E 272 434 100.000000
E 272 616 95.000000
E 273 636 98.000000
E 274 462 96.000000
E 274 516 94.000000
E 274 593 103.000000
E 275 363 94.000000
E 275 368 99.000000
E 275 446 99.000000
E 276 361 115.000000
E 276 491 100.000000
E 276 603 88.000000
E 276 636 104.000000
E 277 634 104.000000
E 278 600 98.000000
E 279 494 100.000000
E 279 531 105.000000
E 279 558 104.000000
E 279 639 99.000000
E 280 319 108.000000
E 280 587 106.000000
E 280 620 104.000000
E 281 443 91.000000
E 281 497 100.000000
E 281 587 101.000000
E 282 286 94.000000
E 282 525 96.000000
E 283 335 103.000000
E 284 374 103.000000
E 284 460 100.000000
E 285 626 97.000000
E 286 321 96.000000
E 286 336 100.000000
E 286 434 101.000000
E 286 439 96.000000
E 286 639 96.000000
E 287 401 94.000000
E 287 453 96.000000
E 287 464 100.000000
E 287 481 92.000000
E 287 572 96.000000
E 288 385 103.000000
E 288 427 94.000000
E 288 444 101.000000
E 289 450 91.000000
E 289 582 97.000000
E 290 507 105.000000
E 291 515 101.000000
E 291 604 99.000000
E 291 633 96.000000
E 292 569 104.000000
E 293 510 98.000000
E 295 383 105.000000
E 295 450 93.000000
E 296 457 92.000000
E 296 552 103.000000
E 297 379 107.000000
E 297 421 97.000000
E 297 534 99.000000
E 298 309 96.000000
E 298 456 107.000000
E 298 597 101.000000
E 299 438 101.000000
E 299 514 92.000000
E 299 623 100.000000
E 300 368 106.000000
E 302 381 102.000000
E 302 413 103.000000
E 302 445 90.000000
E 303 422 107.000000
E 303 511 97.000000
E 303 533 95.000000
E 303 540 98.000000
E 303 637 102.000000
E 304 363 105.000000
E 304 535 107.000000
E 305 421 102.000000
E 305 486 105.000000
E 305 494 108.000000
E 305 513 102.000000
E 306 317 100.000000
E 306 342 92.000000
E 306 353 94.000000
E 306 474 99.000000
E 307 371 95.000000
E 307 454 99.000000
E 307 542 110.000000
E 308 397 97.000000
E 308 528 106.000000
E 309 322 101.000000
E 309 344 98.000000
E 309 403 96.000000
E 309 577 100.000000
E 310 601 93.000000
E 311 402 103.000000
E 311 636 104.000000
E 312 408 98.000000
E 313 409 97.000000
E 313 420 95.000000
E 313 460 96.000000
E 313 524 99.000000
E 313 589 98.000000
E 313 603 102.000000
E 314 418 108.000000
E 314 607 98.000000
E 315 344 97.000000
E 315 379 100.000000
E 316 397 97.000000
E 317 528 101.000000
E 317 572 94.000000
E 318 339 100.000000
E 319 461 107.000000
E 319 483 94.000000
E 319 566 108.000000
E 319 632 95.000000
E 320 361 103.000000
E 320 371 93.000000
E 320 408 100.000000
E 321 403 98.000000
E 321 573 97.000000
E 323 365 104.000000
E 323 397 97.000000
E 323 587 100.000000
E 324 395 106.000000
E 324 568 102.000000
E 325 460 97.000000
E 325 537 96.000000
E 326 338 92.000000
E 326 348 97.000000
E 326 400 100.000000
E 326 526 109.000000
E 326 545 98.000000
E 326 637 100.000000
E 327 328 95.000000
E 327 374 103.000000
E 327 394 99.000000
E 327 512 99.000000
E 327 535 91.000000
E 327 548 98.000000
E 328 406 95.000000
E 328 444 99.000000
E 329 487 101.000000
E 329 618 107.000000
E 330 371 100.000000
E 330 427 96.000000
E 330 589 97.000000
E 331 364 100.000000
E 331 562 95.000000
E 331 565 100.000000
E 331 621 106.000000
E 332 360 93.000000
E 332 405 95.000000
E 332 452 97.000000
E 333 479 104.000000
E 333 509 100.000000
E 333 525 94.000000
E 333 528 99.000000
E 333 603 102.000000
E 334 451 106.000000
E 334 600 97.000000
E 337 584 99.000000
E 337 613 105.000000
E 338 405 102.000000
E 338 432 98.000000
E 339 394 95.000000
E 340 466 101.000000
E 341 576 97.000000
E 342 520 97.000000
E 342 592 102.000000
E 343 367 99.000000
E 344 416 100.000000
E 344 431 103.000000
E 345 430 94.000000
E 345 605 104.000000
E 345 622 102.000000
E 346 360 103.000000
E 346 614 96.000000
E 349 569 90.000000
E 350 462 95.000000
E 350 579 94.000000
E 351 596 105.000000
E 352 360 98.000000
E 352 589 94.000000
E 353 356 102.000000
E 353 539 110.000000
E 354 460 100.000000
E 354 492 98.000000
E 354 498 105.000000
E 355 561 100.000000
E 356 552 107.000000
E 356 555 90.000000
E 357 565 100.000000
E 358 520 99.000000
E 359 459 95.000000
E 359 504 95.000000
E 360 618 93.000000
E 361 385 100.000000
E 361 438 87.000000
E 361 461 98.000000
E 361 536 93.000000
E 362 418 90.000000
E 362 447 98.000000
E 362 622 96.000000
E 363 385 101.000000
E 363 437 102.000000
E 363 609 99.000000
E 365 465 95.000000
E 366 559 91.000000
E 366 623 98.000000
E 367 584 103.000000
E 368 558 105.000000
E 370 521 93.000000
E 371 423 93.000000
E 371 585 106.000000
E 372 394 109.000000
E 373 449 95.000000
E 373 493 99.000000
E 373 508 102.000000
E 374 549 102.000000
E 375 458 109.000000
E 376 401 99.000000
E 376 444 109.000000
E 376 547 102.000000
E 376 573 96.000000
E 378 407 101.000000
E 380 464 102.000000
E 381 634 99.000000
E 382 387 95.000000
E 382 449 90.000000
E 382 626 101.000000
E 384 391 100.000000
E 385 527 102.000000
E 387 550 100.000000
E 388 636 95.000000
E 390 560 102.000000
E 392 477 99.000000
E 392 478 95.000000
E 393 562 92.000000
E 393 626 101.000000
E 394 463 96.000000
E 394 475 95.000000
E 394 512 97.000000
E 394 523 106.000000
E 394 557 96.000000
E 394 570 98.000000
E 394 626 102.000000
E 395 425 96.000000
E 395 508 92.000000
E 395 614 100.000000
E 396 468 97.000000
E 397 434 101.000000
E 397 541 102.000000
E 397 582 93.000000
E 397 622 96.000000
E 398 604 90.000000
E 398 627 99.000000
E 399 487 113.000000
E 399 495 96.000000
E 399 540 102.000000
E 400 496 96.000000
E 401 607 98.000000
E 401 640 95.000000
E 402 584 103.000000
E 402 597 99.000000
E 403 469 99.000000
E 403 583 96.000000
E 404 484 101.000000
E 404 575 104.000000
E 405 443 95.000000
E 405 545 105.000000
E 406 409 101.000000
E 406 413 99.000000
E 406 510 100.000000
E 406 524 95.000000
E 406 532 102.000000
E 408 426 99.000000
E 408 438 105.000000
E 408 441 92.000000
E 408 510 97.000000
E 408 573 94.000000
E 408 604 91.000000
E 410 474 101.000000
E 410 528 100.000000
E 410 539 106.000000
E 411 538 97.000000
E 411 590 103.000000
E 412 413 108.000000
E 412 537 103.000000
E 413 490 94.000000
E 413 614 98.000000
E 414 441 102.000000
E 414 497 91.000000
E 414 522 104.000000
E 415 487 104.000000
E 416 467 99.000000
E 416 563 89.000000
E 417 554 95.000000
E 418 433 103.000000
E 418 434 108.000000
E 419 466 103.000000
E 419 491 105.000000
E 419 524 97.000000
E 420 565 109.000000
E 421 493 104.000000
E 421 581 98.000000
E 421 610 95.000000
E 421 613 98.000000
E 422 463 106.000000
E 422 617 108.000000
E 422 636 98.000000
E 423 441 98.000000
E 423 636 98.000000
E 424 497 102.000000
E 426 596 96.000000
E 427 622 102.000000
E 427 639 103.000000
E 428 501 102.000000
E 428 566 89.000000
E 429 481 90.000000
E 429 509 103.000000
E 431 552 102.000000
E 431 553 104.000000
E 431 592 98.000000
E 432 516 109.000000
E 433 620 98.000000
E 436 591 96.000000
E 437 491 99.000000
E 437 496 102.000000
E 438 481 100.000000
E 438 508 98.000000
E 438 531 96.000000
E 439 540 100.000000
E 440 558 103.000000
E 442 508 102.000000
E 443 506 104.000000
E 445 465 103.000000
E 445 613 98.000000
E 447 536 102.000000
E 452 521 93.000000
E 452 578 99.000000
E 452 629 102.000000
E 454 484 100.000000
E 454 542 96.000000
E 454 567 103.000000
E 455 638 103.000000
E 456 536 99.000000
E 456 576 99.000000
E 456 580 107.000000
E 457 551 101.000000
E 458 532 98.000000
E 459 604 101.000000
E 460 465 100.000000
E 460 514 104.000000
E 460 576 98.000000
E 460 622 106.000000
E 462 546 89.000000
E 462 558 103.000000
E 463 563 106.000000
E 463 609 97.000000
E 463 629 99.000000
E 464 574 98.000000
E 464 617 101.000000
E 467 500 108.000000
E 467 523 92.000000
E 469 484 98.000000
E 471 537 84.000000
E 471 568 110.000000
E 471 608 100.000000
E 471 624 100.000000
E 473 631 108.000000
E 474 499 91.000000
E 474 575 93.000000
E 474 636 102.000000
E 475 517 99.000000
E 476 482 106.000000
E 476 631 116.000000
E 477 485 95.000000
E 477 508 87.000000
E 479 570 98.000000
E 480 487 92.000000
E 480 506 104.000000
E 482 639 108.000000
E 484 529 103.000000
E 485 604 110.000000
E 487 547 116.000000
E 487 603 105.000000
E 489 555 106.000000
E 489 611 98.000000
E 489 623 97.000000
E 490 615 94.000000
E 495 549 105.000000
E 496 528 100.000000
E 496 589 98.000000
E 498 530 107.000000
E 498 598 101.000000
E 501 508 99.000000
E 503 525 102.000000
E 503 615 103.000000
E 505 535 104.000000
E 507 597 103.000000
E 508 591 106.000000
E 509 606 101.000000
E 512 519 109.000000
E 512 566 96.000000
E 514 556 105.000000
E 515 598 108.000000
E 518 633 99.000000
E 520 635 96.000000
E 521 597 88.000000
E 521 638 103.000000
E 523 593 101.000000
E 524 614 101.000000
E 533 535 104.000000
E 533 638 102.000000
E 534 638 109.000000
E 537 628 104.000000
E 538 568 99.000000
E 538 579 100.000000
E 538 611 105.000000
E 540 620 102.000000
E 541 582 97.000000
E 541 626 96.000000
E 542 583 107.000000
E 542 610 102.000000
E 547 619 107.000000
E 550 597 99.000000
E 551 555 99.000000
E 554 635 108.000000
E 555 556 107.000000
E 555 575 100.000000
E 561 566 92.000000
E 563 571 93.000000
E 564 636 107.000000
E 566 625 107.000000
E 569 578 100.000000
E 572 608 98.000000
E 582 609 96.000000
E 585 608 93.000000
E 587 606 103.000000
E 588 638 100.000000
E 596 600 108.000000
E 596 601 105.000000
E 600 625 99.000000
E 624 638 107.000000
E 630 633 99.000000
E 630 635 98.000000
END

SECTION Terminals
Terminals 160
TP 1 700.000000
TP 2 392.000000
TP 3 32.000000
TP 4 956.000000
TP 5 80.000000
TP 6 64.000000
TP 7 64.000000
TP 8 1056.000000
TP 9 212.000000
TP 10 1064.000000
TP 11 984.000000
TP 12 1004.000000
TP 13 32.000000
TP 14 1200.000000
TP 15 600.000000
TP 16 552.000000
TP 17 144.000000
TP 18 780.000000
TP 19 936.000000
TP 20 404.000000
TP 21 340.000000
TP 22 720.000000
TP 23 1164.000000
TP 24 884.000000
TP 25 1120.000000
TP 26 708.000000
TP 27 540.000000
TP 28 356.000000
TP 29 36.000000
TP 30 832.000000
TP 31 1080.000000
TP 32 1088.000000
TP 33 28.000000
TP 34 948.000000
TP 35 508.000000
TP 36 1100.000000
TP 37 308.000000
TP 38 1012.000000
TP 39 412.000000
TP 40 1108.000000
TP 41 536.000000
TP 42 1004.000000
TP 43 680.000000
TP 44 1132.000000
TP 45 180.000000
TP 46 472.000000
TP 47 320.000000
TP 48 560.000000
TP 49 1188.000000
TP 50 800.000000
TP 51 1200.000000
TP 52 672.000000
TP 53 452.000000
TP 54 1152.000000
TP 55 612.000000
TP 56 932.000000
TP 57 672.000000
TP 58 1216.000000
TP 59 124.000000
TP 60 452.000000
TP 61 1144.000000
TP 62 696.000000
TP 63 656.000000
TP 64 116.000000
TP 65 508.000000
TP 66 544.000000
TP 67 256.000000
TP 68 336.000000
TP 69 404.000000
TP 70 468.000000
TP 71 284.000000
TP 72 496.000000
TP 73 316.000000
TP 74 56.000000
TP 75 1064.000000
TP 76 1096.000000
TP 77 1056.000000
TP 78 416.000000
TP 79 968.000000
TP 80 1116.000000
TP 81 656.000000
TP 82 352.000000
TP 83 756.000000
TP 84 1100.000000
TP 85 576.000000
TP 86 500.000000
TP 87 140.000000
TP 88 20.000000
TP 89 732.000000
TP 90 32.000000
TP 91 388.000000
TP 92 428.000000
TP 93 16.000000
TP 94 1100.000000
TP 95 944.000000
TP 96 972.000000
TP 97 680.000000
TP 98 1188.000000
TP 99 1044.000000
TP 100 112.000000
TP 101 1124.000000
TP 102 292.000000
TP 103 160.000000
TP 104 696.000000
TP 105 460.000000
TP 106 1140.000000
TP 107 1028.000000
TP 108 1208.000000
TP 109 440.000000
TP 110 760.000000
TP 111 80.000000
TP 112 24.000000
TP 113 824.000000
TP 114 784.000000
TP 115 212.000000
TP 116 664.000000
TP 117 572.000000
TP 118 1188.000000
TP 119 876.000000
TP 120 304.000000
TP 121 280.000000
TP 122 404.000000
TP 123 860.000000
TP 124 760.000000
TP 125 216.000000
TP 126 876.000000
TP 127 992.000000
TP 128 260.000000
TP 129 804.000000
TP 130 1064.000000
TP 131 160.000000
TP 132 564.000000
TP 133 1036.000000
TP 134 76.000000
TP 135 572.000000
TP 136 892.000000
TP 137 952.000000
TP 138 772.000000
TP 139 628.000000
TP 140 440.000000
TP 141 860.000000
TP 142 584.000000
TP 143 460.000000
TP 144 1120.000000
TP 145 228.000000
TP 146 988.000000
TP 147 844.000000
TP 148 180.000000
TP 149 680.000000
TP 150 824.000000
TP 151 848.000000
TP 152 336.000000
TP 153 368.000000
TP 154 760.000000
TP 155 1188.000000
TP 156 1208.000000
TP 157 1064.000000
TP 158 764.000000
TP 159 496.000000
TP 160 1176.000000
END

EOF
